Optimal - objective value 0.00000000
      0 C0000000               1                      0
      1 C0000001              -4                      0
      2 C0000002             -16                      0
      3 C0000003             -16                      0
      4 C0000004             -16                      0
      5 C0000005             -16                      0
      6 C0000006             -12                      0
      7 C0000007             -12                      0
      8 C0000008             -12                      0
      9 C0000009             -12                      0
     10 C0000010              -8                      0
     11 C0000011              -8                      0
     12 C0000012              -8                      0
     13 C0000013              -8                      0
     14 C0000014              -4                      0
     15 C0000015              -4                      0
     16 C0000016              -4                      0
     17 C0000017              -4                      0
     18 C0000018            4000                      0
     19 C0000019            4000                      0
     20 C0000020            4000                      0
     21 C0000021            4000                      0
     22 C0000022              16                      0
     23 C0000023               1                      0
     24 C0000024              -4                      0
     25 C0000025             -19                      0
     26 C0000026             -19                      0
     27 C0000027             -19                      0
     28 C0000028             -19                      0
     29 C0000029          -14.25                      0
     30 C0000030          -14.25                      0
     31 C0000031          -14.25                      0
     32 C0000032          -14.25                      0
     33 C0000033            -9.5                      0
     34 C0000034            -9.5                      0
     35 C0000035            -9.5                      0
     36 C0000036            -9.5                      0
     37 C0000037           -4.75                      0
     38 C0000038           -4.75                      0
     39 C0000039           -4.75                      0
     40 C0000040           -4.75                      0
     41 C0000041            4000                      0
     42 C0000042            4000                      0
     43 C0000043            4000                      0
     44 C0000044            4000                      0
     45 C0000045              19                      0
     46 C0000046               1                      0
     47 C0000047              -4                      0
     48 C0000048             -23                      0
     49 C0000049             -23                      0
     50 C0000050             -23                      0
     51 C0000051             -23                      0
     52 C0000052          -17.25                      0
     53 C0000053          -17.25                      0
     54 C0000054          -17.25                      0
     55 C0000055          -17.25                      0
     56 C0000056           -11.5                      0
     57 C0000057           -11.5                      0
     58 C0000058           -11.5                      0
     59 C0000059           -11.5                      0
     60 C0000060           -5.75                      0
     61 C0000061           -5.75                      0
     62 C0000062           -5.75                      0
     63 C0000063           -5.75                      0
     64 C0000064            4000                      0
     65 C0000065            4000                      0
     66 C0000066            4000                      0
     67 C0000067            4000                      0
     68 C0000068              23                      0
     69 C0000069               1                      0
     70 C0000070              -4                      0
     71 C0000071            -102                      0
     72 C0000072            -102                      0
     73 C0000073            -102                      0
     74 C0000074            -102                      0
     75 C0000075           -76.5                      0
     76 C0000076           -76.5                      0
     77 C0000077           -76.5                      0
     78 C0000078           -76.5                      0
     79 C0000079             -51                      0
     80 C0000080             -51                      0
     81 C0000081             -51                      0
     82 C0000082             -51                      0
     83 C0000083           -25.5                      0
     84 C0000084           -25.5                      0
     85 C0000085           -25.5                      0
     86 C0000086           -25.5                      0
     87 C0000087            4000                      0
     88 C0000088            4000                      0
     89 C0000089            4000                      0
     90 C0000090            4000                      0
     91 C0000091             102                      0
     92 C0000092               0                      0
     93 C0000093             -36                      0
     94 C0000094  8.8817842e-016                      0
     95 C0000095          -31.25                      0
     96 C0000096               0                      0
     97 C0000097          -35.25                      0
     98 C0000098 -8.8817842e-016                      0
     99 C0000099          -30.25                      0
    100 C0000100  -2.220446e-014                      0
    101 C0000101 -7.1054274e-015                      0
    102 C0000102               0                      0
    103 C0000103           -9.75                      0
    104 C0000104               0                      0
    105 C0000105          -34.25                      0
    106 C0000106 -8.8817842e-016                      0
    107 C0000107           -8.75                      0
    108 C0000108               0                      0
    109 C0000109           -14.5                      0
      0 X0000000               0                      0
      1 X0000001               4                      0
      2 X0000002            8.75                      0
      3 X0000003            4.75                      0
      4 X0000004            9.75                      0
      5 X0000005              40                      0
      6 X0000006           30.25                      0
      7 X0000007            5.75                      0
      8 X0000008           31.25                      0
      9 X0000009            25.5                      0
     10 X0000010               0                      0
     11 X0000011               0                      0
     12 X0000012               0                      0
     13 X0000013               4                      0
     14 X0000014            4.75                      0
     15 X0000015               0                      0
     16 X0000016            5.75                      0
     17 X0000017            25.5                      0
     18 X0000018               0                      0
     19 X0000019               0                      0
     20 X0000020               0                      0
     21 X0000021               0                      0
     22 X0000022               0                      0
     23 X0000023               4                      0
     24 X0000024            4.75                      0
     25 X0000025               0                      0
     26 X0000026            5.75                      0
     27 X0000027            25.5                      0
     28 X0000028               4                      0
     29 X0000029            4.75                      0
     30 X0000030               0                      0
     31 X0000031            5.75                      0
     32 X0000032            25.5                      0
     33 X0000033               0                      0
     34 X0000034               0                      0
     35 X0000035               0                      0
     36 X0000036               0                      0
     37 X0000037               0                      0
     38 X0000038               4                      0
     39 X0000039            4.75                      0
     40 X0000040               0                      0
     41 X0000041            5.75                      0
     42 X0000042            25.5                      0
     43 X0000043               0                      0
     44 X0000044               0                      0
     45 X0000045               0                      0
     46 X0000046               1                      0
     47 X0000047               1                      0
     48 X0000048               1                      0
     49 X0000049               1                      0
     50 X0000050               1                      0
     51 X0000051               1                      0
     52 X0000052               1                      0
     53 X0000053               1                      0
     54 X0000054               1                      0
     55 X0000055               0                      0
     56 X0000056               0                      0
     57 X0000057               0                      0
     58 X0000058               0                      0
     59 X0000059               1                      0
     60 X0000060               0                      0
     61 X0000061               0                      0
     62 X0000062               0                      0
     63 X0000063               0                      0
     64 X0000064               1                      0
     65 X0000065               0                      0
     66 X0000066               0                      0
     67 X0000067               0                      0
     68 X0000068               0                      0
     69 X0000069               1                      0
     70 X0000070               0                      0
     71 X0000071               0                      0
     72 X0000072               0                      0
     73 X0000073               0                      0
     74 X0000074               1                      0
